! from materials project mp-1238754
%block LATTICE_CART
ang
  4.2916162   0.0000000   0.2891723
  0.0000000  11.9526272   0.0000000
 -2.2431562   0.0000000   8.1418972
%endblock LATTICE_CART

%block POSITIONS_ABS
ang
  H  4.165136657  7.049409108  0.108413232
  H -0.995098528  1.073095515  4.251707653
  H  3.043558553  10.879531672  4.179361810
  H -2.116676631  4.903218079  8.322656231
  C  3.382055886  6.724937624  1.893762029
  C -0.212017756  0.748624031  2.466358854
  C  2.260477782  11.204003155  5.964710609
  C -1.333595860  5.227689562  6.537307434
  O  3.716844650  7.571235178  0.861659213
  O  3.713348333  5.491235733  1.783114129
  O  0.392310878  1.269580506  1.491973361
  O  2.777727251  7.245894100  2.868147523
  O -0.543310204  11.467549326  2.577006756
  O -0.546806521  1.594921585  3.498461670
  O  2.595266546  10.357705602  4.932607793
  O  2.591770230  0.485077860  5.854062707
  O -0.729267225  4.706733087  5.562921940
  O  1.656149148  10.683046680  6.939096102
  O -1.664888308  6.461391454  6.647955335
  O -1.668384625  4.381392009  7.569410250
 Cs  1.652001241  9.997100700  0.916333218
 Cs  1.518036888  4.020787107  3.443787666
 Cs  0.530423138  7.931840079  4.987281798
 Cs  0.396458785  1.955526486  7.514736245
%endblock POSITIONS_ABS

%block SPECIES_POT
NCP
%endblock SPECIES_POT

KPOINT_MP_GRID 2 2 2
