! from materials project mp-23724
%block LATTICE_CART
ang
  3.7904896  -0.0206660  -0.1781622
 -0.1196496   5.7790249   0.0495418
 -2.1055762  -2.4455957   7.7488484
%endblock LATTICE_CART

%block POSITIONS_ABS
ang
  H  1.898045632  3.968581540  0.186209580
  H -0.332781814 -0.655818299  7.434018446
  C  2.580114632  3.003293886  1.765255559
  C -1.014850815  0.309469355  5.854972466
  O  2.249898795  4.170004588  1.121714309
  O  2.279264703  1.894778759  1.200250400
  O -0.630928094  3.151102079  3.057017714
  O  2.196191911  0.161661162  4.563210312
  O -0.714000886  1.417984484  6.419977627
  O -0.684634977 -0.857241347  6.498513718
  K  0.348483488  0.205229003  2.532369300
  K  1.216780330  3.107534239  5.087858726
%endblock POSITIONS_ABS

%block SPECIES_POT
NCP
%endblock SPECIES_POT

KPOINT_MP_GRID 2 2 2
