! from potassium materials project structure mp-2374
%block LATTICE_CART
ang
  4.0240124  -0.0188069  -0.1793194
 -0.1222245   5.9998178   0.0441409
 -2.2179581  -2.5495466   7.8942199
%endblock LATTICE_CART

%block POSITIONS_ABS
ang
  H  2.027390959  4.074868014  0.173644286
  H -0.343561205 -0.643403609  7.585397159
  C  2.734011593  3.122101555  1.749338465
  C -1.050181839  0.309362850  6.009702979
  O  2.406142388  4.285796293  1.096823783
  O  2.439002603  2.011752982  1.183335683
  O -0.721927073  3.272724881  3.047406594
  O  2.405756827  0.158739524  4.711634851
  O -0.755172849  1.419711424  6.575705762
  O -0.722312634 -0.854331888  6.662217662
 Rb  0.396533086  0.212879691  2.547651722
 Rb  1.287296669  3.218584715  5.211389723
%endblock POSITIONS_ABS

%block SPECIES_POT
NCP
%endblock SPECIES_POT

KPOINT_MP_GRID 2 2 2
