! from materials project mp-616458
%block LATTICE_CART
ang
  6.5825343   0.0000000   0.0549640
  0.0000000  10.0989192   0.0000000
 -0.8540372   0.0000000   8.3407568
%endblock LATTICE_CART

%block POSITIONS_ABS
ang
  C  4.814503344  0.691749122  2.039469242
  C  1.341012391  5.741208741  2.185873178
  C  4.387484750  4.357710496  6.209847657
  C  0.913993796  9.407170114  6.356251592
  O  2.352295476  6.128784358  1.451703128
  O  4.740199348  9.670571627  1.376469349
  O  5.904799209  1.414157077  1.962020002
  O  0.250716527  6.463616695  2.263322417
  O  1.415316387  4.621112009  2.848873070
  O  3.803220261  1.079324740  2.773639290
  O  1.925276880  9.019594496  5.622081543
  O  4.313180753  5.477807228  5.546847764
  O  5.477780614  3.635302541  6.132398418
  O -0.176302068  8.684762160  6.433700833
  O  0.988297793  0.428347609  7.019251486
  O  3.376201665  3.970134878  6.944017706
 Cs  1.716875461  3.082387897  0.136767404
 Cs  1.459152825  9.168700001  1.409006275
 Cs  4.696362911  4.119240383  2.816336143
 Cs  4.438640274  8.131847515  4.088575015
 Cs  1.289856867  1.967071721  4.307145820
 Cs  1.032134230  5.979678853  5.579384691
 Cs  4.269344315  0.930219235  6.986714559
 Cs  4.011621680  7.016531339  8.258953430
%endblock POSITIONS_ABS

%block SPECIES_POT
NCP
%endblock SPECIES_POT

KPOINT_MP_GRID 2 2 2
