! from materials project mp-3963
%block LATTICE_CART
ang
  5.7369878   0.0000000   0.0491379
  0.0000000   9.8565086   0.0000000
 -0.8517689   0.0000000   7.1993218
%endblock LATTICE_CART

%block POSITIONS_ABS
ang
  C  4.093564328  0.824217846  1.784988550
  C  1.217539034  5.752472149  1.863810271
  C  3.667679863  4.104036457  5.384649439
  C  0.791654568  9.032290760  5.463471158
  O  2.305731468  6.326252308  1.438348619
  O  4.076598767  9.423391933  1.424327802
  O  5.206295147  1.503024854  1.690882377
  O  0.104808216  6.431279157  1.957916443
  O  1.234504596  4.495137630  2.224471020
  O  3.005371894  1.397998005  2.210450201
  O  1.879847002  8.458510601  5.038009508
  O  3.650714300  5.361370976  5.023988690
  O  4.780410681  3.425229449  5.290543265
  O -0.321076251  8.353483752  5.557577332
  O  0.808620129  0.433116673  5.824131908
  O  2.579487428  3.530256298  5.810111089
  K  1.458594221  2.660710997  0.185851077
  K  1.226461360  9.049750124  1.363992739
  K  4.084642003  4.121495821  2.284806082
  K  3.852509142  7.588965300  3.462947745
  K  1.032709754  2.267543306  3.785511965
  K  0.800576893  5.735012785  4.963653627
  K  3.658757536  0.806758482  5.884466970
  K  3.426624675  7.195797609  7.062608633
%endblock POSITIONS_ABS

%block SPECIES_POT
NCP
%endblock SPECIES_POT

KPOINT_MP_GRID 2 2 2
