! from materials project mp-4138
%block LATTICE_CART
ang
  6.1587654   0.0000000  -0.0320648
  0.0000000   9.9878208   0.0000000
 -0.8316844   0.0000000   7.6565535
%endblock LATTICE_CART

%block POSITIONS_ABS
ang
  C  4.445024038  0.801371956  1.811329703
  C  1.297899211  5.795282337  1.984882268
  C  4.029181838  4.192538425  5.639606462
  C  0.882057013  9.186448805  5.813159028
  O  4.376623376  9.595336428  1.293264044
  O  2.300011261  6.265672876  1.291852312
  O  5.523358220  1.521854158  1.611841676
  O  0.219565029  6.515764539  2.184370294
  O  3.442911988  1.271762495  2.504359658
  O  1.366299873  4.601426048  2.502947926
  O  3.960781178  5.386394714  5.121540804
  O  1.884169062  8.716058267  5.120129073
  O  5.107516021  3.472056223  5.440118436
  O -0.196277170  8.465966604  6.012647054
  O  3.027069789  3.722147886  6.332636418
  O  0.950457674  0.392484333  6.331224687
 Rb  1.575027629  2.827328775  0.166345462
 Rb  1.342507044  9.111283232  1.375703342
 Rb  4.400416205  4.117372851  2.420508629
 Rb  4.167895620  7.821239156  3.629866510
 Rb  1.159185429  2.166581606  3.994622221
 Rb  0.926664844  5.870447910  5.203980101
 Rb  3.984574006  0.876537529  6.248785389
 Rb  3.752053422  7.160491987  7.458143269
%endblock POSITIONS_ABS

%block SPECIES_POT
NCP
%endblock SPECIES_POT

KPOINT_MP_GRID 2 2 2
