%block LATTICE_CART
ang
  5.7297050  -5.3109781   0.0490412
  5.7297050   5.3109781   0.0490412
 -4.0578292   0.0000000   4.6737314
%endblock LATTICE_CART

%block POSITIONS_ABS
ang
  C  6.370053755  0.000000000  4.267245795
  O  4.756152896  0.000000000  0.735861618
  O  3.124569267 -1.305264777  2.579351452
  O  3.124569267  1.305264777  2.579351452
  O  6.395746995  0.000000000  2.925989856
  O -3.981968668  0.000000000  4.809578414
  O  5.199908417  0.000000000  4.816416359
  O  4.456486384 -1.870350102  2.745600363
  O  4.456486384  1.870350102  2.745600363
  V  4.449999293  0.000000000  2.343916528
 Cs  7.057956091  2.231755288  0.796607616
 Cs  7.057956091 -2.231755288  0.796607616
 Cs -1.200685056  0.000000000  2.981142659
%endblock POSITIONS_ABS

%block SPECIES_POT
NCP
%endblock SPECIES_POT

KPOINT_MP_GRID 2 2 2
