%block LATTICE_CART
ang
  5.6784811   0.0000000   0.6011204
  0.0000000   9.5142305   0.0000000
  2.8824379   4.7571153   4.3697291
%endblock LATTICE_CART

%block POSITIONS_ABS
ang
  C  6.175478773  9.514230502  2.429858210
  O  5.066643874  9.514230502  1.764659227
  O  6.259343267  9.514230502  3.704869718
  O  3.468840750  6.635271661  3.807774620
  O  3.468840750  12.393189343  3.807774620
  O  2.784999362  6.058932763  2.657722308
  O  2.784999362  3.455297738  2.657722308
  O  1.615604017  9.514230502  1.095515488
  O  5.242625679  4.757115251  2.841309324
  K  3.476891424  7.502264625  0.441367052
  K  3.476891424  2.011965877  0.441367052
  K  3.396581530  9.514230502  3.997526942
  V  3.777015716  4.757115251  3.562398129
%endblock POSITIONS_ABS

%block SPECIES_POT
NCP
%endblock SPECIES_POT

KPOINT_MP_GRID 2 2 2
