%block LATTICE_CART
ang
  5.9232851  -0.0000000   0.6077227
 -0.0000000   9.9903435  -0.0000000
  2.9389500   4.9951717   4.4707470
%endblock LATTICE_CART

%block POSITIONS_ABS
ang
  C  4.126058927  4.995171746  2.792386535
  O  5.229462914  4.995171746  3.466030075
  O  2.998162793  4.995171746  3.515803721
  O  1.722736025  11.290381531  1.890915726
  O  1.722736025  8.690305454  1.890915726
  O  4.050956534  4.995171746  1.516546431
  O  1.053872447  1.880289014  0.733428177
  O  1.053872447  8.110054479  0.733428177
  O  5.194542555  9.990343493  2.280398204
  V  0.745860374  9.990343493  0.965817203
 Rb  6.922480396  12.866898889  4.822601791
 Rb  6.922480396  7.113788096  4.822601791
 Rb  1.124408406  4.995171746  0.500399127
%endblock POSITIONS_ABS

%block SPECIES_POT
NCP
%endblock SPECIES_POT

KPOINT_MP_GRID 2 2 2
