%block LATTICE_CART
ang
  9.1991849   0.0033008   0.2156199
  0.0036138  12.1584739   0.0033249
 -0.0099038   0.0041078  11.7566019
%endblock LATTICE_CART

%block POSITIONS_ABS
ang
  H  0.178620589  7.757570460  11.934787472
  H -0.163708753  6.205763689  11.965925549
  H  1.904814367  8.114581415  5.069100155
  H  2.879683424  8.032492336  6.303846683
  H  7.288333588  9.965177442  7.593607704
  H  7.937614531  9.714279546  6.160977270
  H  1.852488852  2.100562594  4.299976443
  H  1.041366754  2.120239917  5.681484163
  H  4.442744736  12.039915390  6.197416529
  H  4.785271960  10.487312543  6.168350537
  H  3.338503913  8.527163475  0.178404600
  H  2.691001277  8.274877526  1.611042660
  H  7.486068588  10.208382595  0.533796144
  H  6.510199212  10.122540284 -0.699630986
  H  7.716138374  4.350562674  1.605123168
  H  8.650639318  3.871642709  0.377012801
  H  6.365820876  4.238750584  5.524125144
  H  7.347031217  4.216255505  6.756722008
  H  4.047966639  2.217007992  6.150052581
  H  3.111997216  1.735810767  7.375608751
  H  5.634136679  3.962138489  11.660375217
  H  6.444927819  3.983085881  10.278155000
  H  2.738775932  1.882429240  12.528725419
  H  1.755463466  1.860187894  11.294361913
  O  0.656070863  10.296291223  1.407509663
  O  5.575034940  1.855934926  1.797094641
  O  5.153652180  4.542997610  1.725723712
  O  3.047073512  2.907167222  2.151287584
  O  1.459560030  8.063017310  2.671315938
  O  6.257762404  4.343694708  2.653170430
  O  5.969457745  1.639912081  3.180051216
  O  3.256508598  1.970969766  3.241670843
  O  1.643574951  9.121624635  3.647839130
  O  4.054182127  4.343769353  4.250901765
  O  4.901819200  3.380402579  4.932474808
  O  4.326300193  8.924647471  6.847337648
  O  5.247911172  7.943861729  7.396619195
  O  7.641947090  3.175661379  8.130414464
  O  6.056461304  10.174821482  8.658451236
  O  3.369351195  10.550478398  8.736111300
  O  3.030141247  7.823923688  8.949006099
  O  7.848105586  4.113101437  9.220238055
  O  6.239776564  9.115185328  9.633847790
  O  4.073305371  7.473716188  9.896716831
  O  3.756572264  10.196641175  10.096236051
  O  8.649646433  1.745962774  10.234919861
  O -1.228169615  7.691663588  2.744575125
  O -0.840635891  8.042000470  4.104930490
  O  9.753801584  1.541022494  7.713206383
  O -0.519215581  10.766192621  3.909253158
  O  10.168120311  4.231310626  7.778410044
  O  10.560028565  4.449959219  9.162083031
  O -0.268241914  9.317273466  0.859400954
  O -1.563266143  10.417659585  2.961675427
  O  10.856167390  1.747715264  8.641123284
  O  9.492744864  2.714438411  10.915202351
  O  2.471598824  1.337371251  11.739423989
  O  5.535992798  4.010441743  10.682883137
  O  3.950892048  1.548774128  6.872705128
  O  7.078528727  4.764633057  5.970416431
  O  8.556676817  4.535576364  1.104204559
  O  6.718037266  10.667919675  0.105388550
  O  3.555122781  8.274996032  1.093459299
  O  4.767991076  11.314289166  5.618819939
  O  0.943229745  2.074550249  4.703646665
  O  8.152360472  9.967784369  7.076167596
  O  2.114106427  7.570149446  5.874710336
  O  0.160620931  6.930458747  11.385723150
  V -0.106885454  9.232040317  2.805978146
  V  4.781900305  3.119329852  2.988881273
  V  4.487742639  9.008383285  8.794494841
  V  9.376299679  2.968526360  8.971339752
 Cs  6.228296772  7.155604583  0.245805619
 Cs  8.673128071  0.960879032  1.975605345
 Cs  4.400538176  11.245829270  2.368226556
 Cs  0.622336923  5.306580172  4.093553843
 Cs  5.446948539  7.091557612  4.376414532
 Cs  7.257456016  0.965341566  5.879040990
 Cs  1.627194015  11.084929789  6.015204338
 Cs  4.068077121  5.126432065  7.745621350
 Cs  8.987627022  6.999524891  8.351905513
 Cs  5.212161926  0.774947329  10.077412354
 Cs  0.847239565  11.157573234  10.152146237
 Cs  2.653758071  5.122535492  11.649778931
%endblock POSITIONS_ABS

%block SPECIES_POT
NCP
%endblock SPECIES_POT

KPOINT_MP_GRID 1 1 1
