%block LATTICE_CART
ang
  7.0718716   0.0387581  -0.2287772
  0.1207342  25.1506428   0.0087041
 -3.3230657  -0.0115213   7.2521474
%endblock LATTICE_CART

%block POSITIONS_ABS
ang
  H  0.462207460  19.946121361  1.714805019
  H  3.712809233  19.804415795  4.655774278
  H  2.965686731  18.908817976  3.590404717
  H -0.103247470  16.232827027  6.751737548
  H  1.677100204  16.181748973  4.829568004
  H  0.117822535  11.516770661  2.687320585
  H -0.420693436  12.324654976  0.252784753
  H  2.017590741  11.848929095  5.101455810
  H  3.047232719  13.772703724  4.423214075
  H  1.939352975  9.024489690  2.531028529
  H  3.688694449  8.892154406  0.622456736
  H  2.590971828  1.213878564  6.130701888
  H  3.804116955 -0.532611422  5.410079447
  H  0.959842096  6.185049986  3.469560570
  H  0.287131716  5.348968905  2.355830753
  H  1.967207044  7.227579398  5.965152613
  H  2.736563777  6.342457885  7.004532318
  H  3.979996401  3.662271006  5.751992702
  H  2.024939475  24.173819598  0.765935485
  H  2.616364727  24.981504272  3.223515117
  H -1.596849741  21.257855753  2.923969622
  H  1.141316496  19.074394534 -0.014332471
  H  1.703292581  18.189922960  1.174826684
  H  5.785762283  3.725080633  3.855562102
  O  0.932385549  9.852968462  6.688332704
  O  2.563999433  15.335674361  0.644100435
  O  4.891639517  22.305707375  3.682054359
  O -0.675239358  2.774242286  2.906099386
  O -0.286963169  10.584685639  6.371948921
  O  3.775478356  14.597866136  0.963579421
  O -1.013309752  23.021220888  4.315938195
  O  5.180618001  2.078065127  2.368092575
  O  1.817215868  9.685327041  4.076811781
  O  1.626948709  15.685700802  3.276876111
  O  1.261670190  11.031498469  4.020127095
  O  2.234271091  14.369523029  3.198536749
  O -2.360613083  23.795371970  6.696842461
  O  6.657906743  1.819698605  0.112133251
  O -0.717309009  7.980691859  5.630122521
  O  4.263429836  17.205799423  1.579249757
  O -0.733978025  20.389383520  5.232679044
  O  4.722162113  4.712470191  1.748259781
  O -1.479986877  10.174249468  4.102703393
  O  4.935153579  15.124231325  3.257306845
  O  0.309319779  22.657136571  6.516899568
  O  3.975996066  2.627529165  0.100958501
  O -0.734896126  9.248682995  3.265762339
  O  4.182639756  16.085186915  4.050015471
  O  2.875147955  21.836151594  0.187297660
  O  1.401536645  3.571449207  6.550224202
  O  0.534175866  7.570661070  5.015514845
  O  3.017327549  17.676560294  2.159771913
  O -2.010072416  20.159465726  5.889009081
  O  5.974062252  5.139488855  1.146004067
  O  0.183022539  20.674599928  2.341809169
  O  2.818416617  19.601173904  4.272956434
  O  4.073724126  22.542071117  6.327923981
  O  1.606220593  16.490177120  5.794601253
  O  0.163828277  16.721453610  5.898337246
  O  0.266959070  12.398696146  0.972056212
  O -0.529651672  12.062611253  2.155261139
  O  3.545818198  13.115522888  5.028342426
  O  2.440752041  12.518727688  5.781117020
  O  3.402773259  8.353508314  1.438693813
  O  1.990902187  8.707096860  1.577396779
  O  3.311459695  0.083786380  4.722908510
  O  2.147239383  0.558030642  5.474265875
  O  0.228233033  3.079898754  0.250172456
  O  1.173285944  5.533149400  2.775670476
  O  2.872852887  7.046087698  6.324975303
  O  4.083414814  4.036543883  4.810996645
  O  1.914466485  24.986974975  2.513577915
  O  2.706711250  24.650802093  1.329321685
  O -1.269169203  20.660648127  2.136151269
  O  0.858741281  18.559448224  0.789930234
  O  5.540569011  4.185980319  4.733082436
  V  0.099119682  9.476529733  4.896940603
  V  3.356779970  15.768538264  2.408319809
  V -1.360361856  22.028722197  5.850491682
  V  5.585134502  3.236272889  0.914653418
 Rb  3.595396723  11.619678159  2.045162589
 Rb -0.490257110  13.561903057  5.309072143
 Rb  5.615314506  23.982945066  1.122344030
 Rb -0.853399756  1.085720345  5.465691959
 Rb  4.390282755  6.764474187  3.667431285
 Rb -0.858267899  18.072401363  3.647850980
 Rb  1.397281121  19.364019549  6.867398620
 Rb  2.624450321  5.605421230  0.059443964
 Rb -3.170276592  9.652562827  6.790553023
 Rb  6.737540595  15.305865922  0.606282514
 Rb  1.961681019  22.334253586  3.918144108
 Rb  2.256761236  2.735163308  2.771945734
%endblock POSITIONS_ABS

%block SPECIES_POT
NCP
%endblock SPECIES_POT

KPOINT_MP_GRID 1 1 1
