! from potassium materials project structure mp-19052
%block LATTICE_CART
ang
  6.1613980   0.0000000   0.0000000
  0.0000000   6.1613980   0.0000000
  0.0000000   0.0000000  11.3362482
%endblock LATTICE_CART

%block POSITIONS_ABS
ang
  O  5.155500124  1.005897849  1.000353963
  O  1.005897849  5.155500124  1.000353963
  O  2.074801137  2.074801137  4.667770159
  O  4.086596836  4.086596836  4.667770159
  O  4.086596836  2.074801137  6.668478084
  O  2.074801137  4.086596836  6.668478084
  O  1.005897849  1.005897849  10.335894281
  O  5.155500124  5.155500124  10.335894281
  V  0.000000000  0.000000000  0.000000000
  V  3.080698986  3.080698986  5.668124122
 Cs  3.080698986  3.080698986  0.000000000
 Cs  3.080698986  0.000000000  2.834062061
 Cs  0.000000000  3.080698986  2.834062061
 Cs  0.000000000  0.000000000  5.668124122
 Cs  3.080698986  0.000000000  8.502186183
 Cs  0.000000000  3.080698986  8.502186183
%endblock POSITIONS_ABS

%block SPECIES_POT
NCP
%endblock SPECIES_POT

KPOINT_MP_GRID 2 2 2
