! from materials project mp-19052
%block LATTICE_CART
ang
  5.6602465   0.0000000   0.0000000
  0.0000000   5.6602465   0.0000000
  0.0000000   0.0000000  10.4277530
%endblock LATTICE_CART

%block POSITIONS_ABS
ang
  O  4.653153994  1.007092477  0.993282991
  O  1.007092477  4.653153994  0.993282991
  O  1.823030759  1.823030759  4.220593498
  O  3.837215713  3.837215713  4.220593498
  O  3.837215713  1.823030759  6.207159480
  O  1.823030759  3.837215713  6.207159480
  O  1.007092477  1.007092477  9.434469987
  O  4.653153994  4.653153994  9.434469987
  K  2.830123236  2.830123236  0.000000000
  K  2.830123236  0.000000000  2.606938244
  K  0.000000000  2.830123236  2.606938244
  K  0.000000000  0.000000000  5.213876489
  K  2.830123236  0.000000000  7.820814733
  K  0.000000000  2.830123236  7.820814733
  V  0.000000000  0.000000000  0.000000000
  V  2.830123236  2.830123236  5.213876489
%endblock POSITIONS_ABS

%block SPECIES_POT
NCP
%endblock SPECIES_POT

KPOINT_MP_GRID 2 2 2
