! from potassium materials project structure mp-19052
%block LATTICE_CART
ang
  5.9160623   0.0000000   0.0000000
  0.0000000   5.9160623   0.0000000
  0.0000000   0.0000000  10.8211310
%endblock LATTICE_CART

%block POSITIONS_ABS
ang
  O  4.907464304  1.008597996  0.992827860
  O  1.008597996  4.907464304  0.992827860
  O  1.949433154  1.949433154  4.417737631
  O  3.966629146  3.966629146  4.417737631
  O  3.966629146  1.949433154  6.403393351
  O  1.949433154  3.966629146  6.403393351
  O  1.008597996  1.008597996  9.828303122
  O  4.907464304  4.907464304  9.828303122
  V  0.000000000  0.000000000  0.000000000
  V  2.958031150  2.958031150  5.410565491
 Rb  2.958031150  2.958031150  0.000000000
 Rb  2.958031150  0.000000000  2.705282746
 Rb  0.000000000  2.958031150  2.705282746
 Rb  0.000000000  0.000000000  5.410565491
 Rb  2.958031150  0.000000000  8.115848237
 Rb  0.000000000  2.958031150  8.115848237
%endblock POSITIONS_ABS

%block SPECIES_POT
NCP
%endblock SPECIES_POT

KPOINT_MP_GRID 2 2 2
