! from materials project mp-625136
%block LATTICE_CART
ang
  4.4078981   0.0105738   0.0074970
 -0.0291516  11.6775899  -0.0082679
 -0.0079422   0.0037182   4.6950286
%endblock LATTICE_CART

%block POSITIONS_ABS
ang
  H  2.209619125  0.470355834  0.562085670
  H -0.024741204  6.303822834  0.554201583
  H -0.010573142  5.375486392  2.902278466
  H  2.162932162  11.219512665  2.901913205
  O  2.250224066  1.130366711  1.279293214
  O -0.071044677  6.963608731  1.271278566
  O  0.033399489  4.717089902  3.620771269
  O  2.120020367  10.560884749  3.620249777
 Cs  2.213429519  4.234141857  1.018283343
 Cs -0.049063455  10.067575270  1.010326740
 Cs  0.012059269  1.612054841  3.363949793
 Cs  2.157451666  7.456051978  3.363493811
%endblock POSITIONS_ABS

%block SPECIES_POT
NCP
%endblock SPECIES_POT

KPOINT_MP_GRID 2 2 2
