! from materials project mp-642817
%block LATTICE_CART
ang
  6.0313570   0.0000000  -0.0275126
  0.0000000   3.9622799   0.0000000
 -3.2475897   0.0000000   7.4095746
%endblock LATTICE_CART

%block POSITIONS_ABS
ang
  H  4.791874083  0.542654443  1.696202631
  H -0.384311974  2.523794378  1.981072046
  H  3.168079224  1.438485493  5.400989919
  H -2.008106833  3.419625429  5.685859334
  O  3.997297540  1.097953477  1.587186623
  O  0.410264568  3.079093413  2.090088053
  O  2.373502682  0.883186459  5.291973912
  O -1.213530290  2.864326395  5.794875342
  K  1.527694812  1.016371113  0.460663617
  K  2.879867297  2.997511049  3.216611059
  K -0.096100047  0.964768823  4.165450905
  K  1.256072438  2.945908758  6.921398349
%endblock POSITIONS_ABS

%block SPECIES_POT
NCP
%endblock SPECIES_POT

KPOINT_MP_GRID 2 2 2
