! from materials project mp-626620
%block LATTICE_CART
ang
  4.2230087   0.0000124  -0.0004784
  0.0000325  11.2585224  -0.0002024
 -0.0004929  -0.0000784   4.3073333
%endblock LATTICE_CART

%block POSITIONS_ABS
ang
  H  0.010787729  0.434140992  1.661796212
  H  2.100392313  6.063395484  1.661495496
  H  2.122070628  5.195042632  3.815147817
  H -0.011350538  10.824306287  3.815320240
  O  0.059017529  1.169563547  1.020978480
  O  2.052188670  6.798835405  1.020698719
  O  2.170273241  4.459615231  3.174334537
  O -0.059536075  10.088845206  3.174530706
 Rb  0.036913398  4.051990330  1.180984456
 Rb  2.074508606  9.681236648  1.180683550
 Rb  2.148160384  1.577208340  3.334453885
 Rb -0.037254366  7.206458236  3.334632538
%endblock POSITIONS_ABS

%block SPECIES_POT
NCP
%endblock SPECIES_POT

KPOINT_MP_GRID 2 2 2
