%block LATTICE_CART
ang
  6.2763827  -4.2742513  -1.3352537
  6.2740678   4.2724874  -1.3025564
 -5.5388932   0.0122759   7.4327572
%endblock LATTICE_CART

%block POSITIONS_ABS
ang
  C  5.641495755  0.000041991  4.647690778
  C  4.913761653 -0.011960382 -0.325108785
  O  3.667426002 -0.013001068 -0.597104276
  O  3.354885305 -1.368906796  2.407601983
  O  3.359302175  1.365070467  2.398417304
  O  6.132159640 -0.006630405  3.414685735
  O  4.320622505  0.007822228  4.635855656
  O  6.354939012 -0.001215320  5.677051363
  O  5.322501362 -0.011082578  0.967091552
  O  5.842159150 -0.011745407 -1.206722824
  V  4.270667108 -0.002958168  2.540979998
 Cs  7.858481766  2.188658443 -1.431242104
 Cs  7.870246429 -2.208271654 -1.456516280
 Cs -1.528308073  0.000383934  3.777755393
%endblock POSITIONS_ABS

%block SPECIES_POT
NCP
%endblock SPECIES_POT

KPOINT_MP_GRID 2 2 2
