%block LATTICE_CART
ang
  6.4995020   0.3978825   0.6107270
 -0.3175190   8.0274668  -0.4569516
  3.2528820   4.5576578   4.7347850
%endblock LATTICE_CART

%block POSITIONS_ABS
ang
  C  3.902400440  4.329257785  5.986225100
  C  6.263684602  3.951451057  1.608585139
  O  3.406253445  5.344148782  2.697820687
  O  3.560243948  2.637780631  2.928045184
  O  5.353394478  4.080986499  0.723696221
  O  2.893244779  4.133564838  5.148977355
  O  5.055303055  4.378550000  5.337032301
  O  3.764063891  4.452060799  7.223625052
  O  5.912059144  4.115875881  2.932568818
  O  7.476828844  3.676511011  1.385070924
  K  3.972823013  6.043569063 -0.593513035
  K  3.397594051  2.274235106  0.221834780
  K  3.773694606  8.000512370  2.760006647
  V  4.101423869  4.100019702  3.493560199
%endblock POSITIONS_ABS

%block SPECIES_POT
NCP
%endblock SPECIES_POT

SYMMETRY_GENERATE

KPOINT_MP_GRID 2 2 2
