%block LATTICE_CART
ang
  6.8127652  -0.0325956   0.5220264
 -0.0135618   8.4368576  -0.3507035
  3.6312227   4.3415448   4.8506456
%endblock LATTICE_CART

%block POSITIONS_ABS
ang
  C  1.472114257  8.434558373 -2.231517793
  C -0.851553133  8.368938598  2.204473115
  O  1.975357190  9.775756798  0.941185623
  O  1.891715885  7.055843776  0.966627322
  O -0.495010001  8.469468102  0.872272448
  O  0.323644726  8.514323977 -1.574893855
  O  2.494385380  8.359070684 -1.394924971
  O  1.587477567  8.430939419 -3.478620028
  O  0.025717159  8.650003764  3.085068310
  O -2.041015543  7.995111800  2.427761645
  V  1.301144574  8.444778023  0.276557084
 Rb  8.203322024  10.920544369  4.832129857
 Rb  9.015380300  6.886104126  4.330411303
 Rb  1.534691569  4.141381202  1.008406495
%endblock POSITIONS_ABS

%block SPECIES_POT
NCP
%endblock SPECIES_POT

KPOINT_MP_GRID 2 2 2
