! from the materials project mp-504651
%block LATTICE_CART
ang
  5.5148990  -0.0054486  -0.0000101
 -0.0058946   5.9720390  -0.0000053
 -0.0000233  -0.0000112  12.6952558
%endblock LATTICE_CART

%block POSITIONS_ABS
ang
  O  2.244439991  4.475158962  0.794897333
  O  4.670243173  4.487599775  1.946796661
  O  2.585990059  0.035244769  3.147907106
  O  2.583051536  3.021235948  3.199687292
  O  4.673211103  1.501717523  4.400783519
  O  2.247340065  1.489121947  5.552680986
  O  3.261683322  4.475155970  7.142532019
  O  0.835831937  4.461414451  8.294337814
  O  2.928864781 -0.045394121  9.548417267
  O  2.925881383  2.940643715  9.494428935
  O  0.838814529  1.475252589  10.748555725
  O  3.264622149  1.489139702  11.900298566
  V  3.042772544  4.497893408  2.235836153
  V  3.045713759  1.511879372  4.111758710
  V  2.463316887  4.450660322  8.583423754
  V  2.466271209  1.464616949  10.459396783
 Cs  0.563150576  1.501514310  1.200162907
 Cs  0.560189593  4.487531959  5.147443799
 Cs  4.948824966  1.471484790  7.547816124
 Cs  4.945887386  4.457506482  11.495041212
%endblock POSITIONS_ABS

%block SPECIES_POT
NCP
%endblock SPECIES_POT

KPOINT_MP_GRID 2 2 2
