! from materials project mp-18815
%block LATTICE_CART
ang
  5.3169700   0.5249235  -0.0004095
  0.5905012   5.9537276  -0.0030552
 -0.0000889  -0.0081667  11.3942709
%endblock LATTICE_CART

%block POSITIONS_ABS
ang
  O  3.835518596  4.480165094  0.311791441
  O  1.450382073  4.896574196  1.486600333
  O  3.112325881  0.305716313  2.554874738
  O  3.406577336  3.282311660  2.788290823
  O  1.149979893  1.919471624  3.848465598
  O  3.530163074  1.506016211  5.031980043
  O  2.284037232  4.649472356  6.009987224
  O  4.678739974  4.252180876  7.179725212
  O  2.727484387  5.861344868  8.479743977
  O  2.431073541  2.884637503  8.255023566
  O  4.384197186  1.276756078  9.556155130
  O  1.989647072  1.671814061  10.726288612
  K  4.972366931  1.857471060  0.822694460
  K  5.257985205  4.831027784  4.525304994
  K  0.565395258  1.333336147  6.512369693
  K  0.855098082  4.306408383  10.220559883
  V  3.071669629  4.742168164  1.752593464
  V  2.772439990  1.766379014  3.587677288
  V  3.056390206  4.399267441  7.448540853
  V  2.761877454  1.423305465  9.287718719
%endblock POSITIONS_ABS

%block SPECIES_POT
NCP
%endblock SPECIES_POT

KPOINT_MP_GRID 2 2 2
