! from materials project mp-19031
%block LATTICE_CART
ang
  5.3160206   0.0070763   0.0000119
  0.0079217   5.9501654   0.0000226
  0.0000229   0.0000438  11.7743573
%endblock LATTICE_CART

%block POSITIONS_ABS
ang
  O  2.080076224  4.468911822  0.542062235
  O  4.450261705  4.453358513  1.820969842
  O  2.299675607 -0.031100408  2.966773696
  O  2.303590725  2.944001101  2.920465505
  O  4.446325331  1.478347417  4.066303545
  O  2.076125006  1.493775838  5.345197479
  O  3.247779578  4.466011653  6.429306101
  O  0.877599550  4.483235196  7.708174186
  O  3.024285923  5.994071490  8.806327932
  O  3.020293862  3.018994408  8.855320622
  O  0.873650516  1.508132651  9.953419261
  O  3.243817556  1.491026909  11.232332312
  V  2.807493188  4.445614373  2.019217109
  V  2.803549400  1.470510498  3.868050204
  V  2.520352954  4.491645299  7.906420180
  V  2.516400788  1.516536846  9.755204309
 Rb  0.393657561  1.478972567  1.132436683
 Rb  0.397644730  4.454013518  4.754834440
 Rb  4.926217777  1.513367486  7.019643277
 Rb  4.930191622  4.488510601  10.641992051
%endblock POSITIONS_ABS

%block SPECIES_POT
NCP
%endblock SPECIES_POT

KPOINT_MP_GRID 2 2 2
