%block LATTICE_CART
ang
  7.3566888   0.0000000   0.0000001
  0.0000000   7.3566888   0.0000001
  3.6783446   3.6783446   4.3658115
%endblock LATTICE_CART

%block POSITIONS_ABS
ang
  O  1.375925937  1.375925937  0.111011780
  O  5.980762824  1.375925925 -0.111011706
  O  1.375925925  5.980762824 -0.111011706
  O  5.980762837  5.980762837  0.111011847
  O  6.450454443  6.450454443  1.410551315
  O  8.262923254  8.262923254  1.410551341
  O  4.584578966  2.772110155  2.955260230
  O  2.772110155  4.584578966  2.955260230
  V  0.000000000  0.000000000  0.000000000
 Cs  3.678344381  3.678344381  0.000000054
 Cs  7.356688895  3.678344515  2.182905779
 Cs  3.678344515  7.356688895  2.182905779
%endblock POSITIONS_ABS

%block SPECIES_POT
NCP
%endblock SPECIES_POT

KPOINT_MP_GRID 2 2 2
