%block LATTICE_CART
ang
  6.7437532   0.0000000   0.0000000
  0.0000000   6.7437532   0.0000000
  3.3718768   3.3718768   4.0986393
%endblock LATTICE_CART

%block POSITIONS_ABS
ang
  O  1.371793515  1.371793515  0.107982512
  O  5.371959731  1.371793503 -0.107982476
  O  1.371793503  5.371959731 -0.107982476
  O  5.371959743  5.371959743  0.107982542
  O  5.839053828  5.839053828  1.411471111
  O  7.648452826  7.648452826  1.411471125
  O  4.276576273  2.467177275  2.687168186
  O  2.467177275  4.276576273  2.687168186
  K  3.371876623  3.371876623  0.000000025
  K  6.743753362  3.371876739  2.049319652
  K  3.371876739  6.743753362  2.049319652
  V  0.000000000  0.000000000  0.000000000
%endblock POSITIONS_ABS

%block SPECIES_POT
NCP
%endblock SPECIES_POT

KPOINT_MP_GRID 2 2 2
