%block LATTICE_CART
ang
  7.0225026   0.0000000   0.0000000
  0.0000000   7.0225026   0.0000000
  3.5112515   3.5112515   4.2474022
%endblock LATTICE_CART

%block POSITIONS_ABS
ang
  O  1.374768813  1.374768813  0.113459897
  O  5.647733819  1.374768801 -0.113459839
  O  1.374768801  5.647733819 -0.113459839
  O  5.647733831  5.647733831  0.113459947
  O  6.118962750  6.118962750  1.413060928
  O  7.926042682  7.926042682  1.413060949
  O  4.414791447  2.607711516  2.834341271
  O  2.607711516  4.414791447  2.834341271
  V  0.000000000  0.000000000  0.000000000
 Rb  3.511251316  3.511251316  0.000000041
 Rb  7.022502757  3.511251441  2.123701104
 Rb  3.511251441  7.022502757  2.123701104
%endblock POSITIONS_ABS

%block SPECIES_POT
NCP
%endblock SPECIES_POT

KPOINT_MP_GRID 2 2 2
