%block LATTICE_CART
ang
 35.0000000   0.0000000   0.0000000
  0.0000000  35.0000000   0.0000000
  0.0000000   0.0000000  35.0000000
%endblock LATTICE_CART

%block POSITIONS_ABS
ang
  C  0.000000000  0.000000000  0.000000000
  O  0.000000000  0.000000000  1.172049680
  O  0.000000000  0.000000000 -1.172049680
%endblock POSITIONS_ABS

%block SPECIES_POT
NCP
%endblock SPECIES_POT

KPOINT_MP_GRID 2 2 2
