%block LATTICE_CART
ang
 34.9999747   0.0000000   0.0000000
  0.0000000  35.0001208   0.0000000
  0.0000000   0.0000000  35.0000424
%endblock LATTICE_CART

%block POSITIONS_ABS
ang
  H -0.396589091  0.763255166 -0.894784892
  H -0.396589091 -0.763255166 -0.894784892
  O -0.396589091  0.000000000 -1.487514836
%endblock POSITIONS_ABS

%block SPECIES_POT
NCP
%endblock SPECIES_POT

KPOINT_MP_GRID 2 2 2
